results/res_prop_muc/res_Cimatti_mathsat_cores/QF_UF/SEQ019_size5.smt.smt2.out

real	0m0.123s
user	0m0.069s
sys	0m0.002s
