results/res_prop_muc/res_Cimatti_mathsat_cores/QF_UF/SEQ019_size5.smt.smt2.res
unsat
( _c0
  _c102
  _c109
  _c11
  _c110
  _c12
  _c140
  _c171
  _c172
  _c173
  _c174
  _c175
  _c177
  _c178
  _c179
  _c180
  _c181
  _c186
  _c196
  _c201
  _c208
  _c209
  _c22
  _c226
  _c237
  _c27
  _c276
  _c29
  _c3
  _c30
  _c301
  _c302
  _c304
  _c308
  _c31
  _c310
  _c32
  _c33
  _c347
  _c348
  _c351
  _c352
  _c353
  _c355
  _c356
  _c359
  _c360
  _c361
  _c365
  _c366
  _c37
  _c371
  _c377
  _c380
  _c381
  _c385
  _c386
  _c391
  _c392
  _c397
  _c398
  _c399
  _c4
  _c40
  _c400
  _c401
  _c402
  _c403
  _c404
  _c405
  _c406
  _c41
  _c437
  _c438
  _c439
  _c440
  _c441
  _c47
  _c492
  _c493
  _c494
  _c495
  _c496
  _c5
  _c50
  _c501
  _c502
  _c503
  _c504
  _c505
  _c506
  _c507
  _c508
  _c509
  _c6
  _c78
  _c79
  _c8
  _c80
  _c82
  _c9 )
